Route #1: 8 12 31 27 37 32 41 
Route #2: 15 23 30 24 22 46 25 47 
Route #3: 14 43 48 3 19 33 35 
Route #4: 11 13 18 17 10 
Route #5: 45 50 49 9 20 1 44 21 
Route #6: 5 36 39 29 42 28 6 
Route #7: 4 26 7 16 34 38 2 40 
cost 1113.79